c clasp version 2.1.1
c Reading from p30.cnf
c Solving...
s SATISFIABLE

c Models        : 1+    
c Time          : 0.949s (Solving: 0.18s 1st Model: 0.18s Unsat: 0.00s)
c CPU Time      : 0.940s
c Choices       : 13149
c Conflicts     : 798
c Restarts      : 1      (Average: 798.00 Last: 585)

c Variables     : 219904 (Eliminated: 68550 Frozen:    0)
c Constraints   : 253720 (Binary: 64.4% Ternary: 34.4% Other:  1.2%)
c Lemmas        : 798    (Binary:  0.0% Ternary:  1.5% Other: 98.5%)
c   Conflict    : 798    (Average Length: 39.6) 
c   Loop        : 0      (Average Length: 0.0) 
c   Other       : 0      (Average Length: 0.0)
c   Deleted     : 0     
